c Result of efficient AIG-to-CNF conversion using package CNF
p cnf 38 94
-2 3 19 0
-2 -3 -19 0
2 -3 19 0
2 3 -19 0
-3 -4 -8 0
-3 4 8 0
3 4 -8 0
3 -4 8 0
-4 5 6 0
-4 30 5 0
-4 32 5 0
4 -5 0
4 -30 -32 -6 0
5 -33 -35 -36 -37 0
-5 37 0
-5 33 0
-5 36 0
-5 35 0
-6 33 7 0
-6 35 7 0
6 -7 0
6 -33 -35 0
7 -36 -37 0
-7 36 0
-7 37 0
8 9 -14 0
8 -9 14 0
-8 -9 -14 0
-8 9 14 0
9 10 -11 0
9 -10 11 0
-9 -10 -11 0
-9 10 11 0
10 -31 -37 0
-10 31 0
-10 37 0
11 12 -13 0
11 -12 13 0
-11 -12 -13 0
-11 12 13 0
12 -29 -30 0
-12 29 0
-12 30 0
13 -28 -32 0
-13 28 0
-13 32 0
14 15 -16 0
14 -15 16 0
-14 -15 -16 0
-14 15 16 0
15 -27 -33 0
-15 27 0
-15 33 0
16 17 -18 0
16 -17 18 0
-16 -17 -18 0
-16 17 18 0
17 -34 -36 0
-17 34 0
-17 36 0
18 -26 -35 0
-18 26 0
-18 35 0
-19 -20 -21 0
-19 20 21 0
19 20 -21 0
19 -20 21 0
-20 5 6 0
-20 30 5 0
-20 32 5 0
20 -5 0
20 -30 -32 -6 0
21 22 -24 0
21 -22 24 0
-21 -22 -24 0
-21 22 24 0
22 -10 23 0
22 10 -23 0
-22 10 23 0
-22 -10 -23 0
-23 -12 -13 0
-23 12 13 0
23 12 -13 0
23 -12 13 0
24 -15 25 0
24 15 -25 0
-24 15 25 0
-24 -15 -25 0
-25 -17 -18 0
-25 17 18 0
25 17 -18 0
25 -17 18 0
-38 0
2 0

